;---
; using 8-bit bit-vectors as characters
; check membership of .Net regex
; regexA = \w+([-+.]\w+)*@\w+([-.]\w+)*\.\w+([-.]\w+)*([,;]\s*\w+([-+.]\w+)*@\w+([-.]\w+)*\.\w+([-.]\w+)*)*
;---
(set-info :status sat)
(set-option :print-success true)
(set-logic QF_BVRE)

(declare-const regexA (RegEx String))
(declare-const x String)

;witness1: "\x0\u00841@m\u00CD\u00B5.\u00AA.\u00AA-_\u00C12\u00DC\u00F4-2-\u00B5;\u007F\u0095"
(define-fun Witness1 () String (seq.++ "\x00" (seq.++ "\x84" (seq.++ "1" (seq.++ "@" (seq.++ "m" (seq.++ "\xcd" (seq.++ "\xb5" (seq.++ "." (seq.++ "\xaa" (seq.++ "." (seq.++ "\xaa" (seq.++ "-" (seq.++ "_" (seq.++ "\xc1" (seq.++ "2" (seq.++ "\xdc" (seq.++ "\xf4" (seq.++ "-" (seq.++ "2" (seq.++ "-" (seq.++ "\xb5" (seq.++ ";" (seq.++ "\x7f" (seq.++ "\x95" "")))))))))))))))))))))))))
;witness2: "8\u00BA\u00AA8@\u00EF.\u00F1.Z;\xA \u0085h+\u00DC@x.\u00AAk\u00C6\u00F63;\u00E1a7\u00B5@u.98X\u00A3\u008A"
(define-fun Witness2 () String (seq.++ "8" (seq.++ "\xba" (seq.++ "\xaa" (seq.++ "8" (seq.++ "@" (seq.++ "\xef" (seq.++ "." (seq.++ "\xf1" (seq.++ "." (seq.++ "Z" (seq.++ ";" (seq.++ "\x0a" (seq.++ " " (seq.++ "\x85" (seq.++ "h" (seq.++ "+" (seq.++ "\xdc" (seq.++ "@" (seq.++ "x" (seq.++ "." (seq.++ "\xaa" (seq.++ "k" (seq.++ "\xc6" (seq.++ "\xf6" (seq.++ "3" (seq.++ ";" (seq.++ "\xe1" (seq.++ "a" (seq.++ "7" (seq.++ "\xb5" (seq.++ "@" (seq.++ "u" (seq.++ "." (seq.++ "9" (seq.++ "8" (seq.++ "X" (seq.++ "\xa3" (seq.++ "\x8a" "")))))))))))))))))))))))))))))))))))))))

(assert (= regexA (re.++ (re.+ (re.union (re.range "0" "9")(re.union (re.range "A" "Z")(re.union (re.range "_" "_")(re.union (re.range "a" "z")(re.union (re.range "\xaa" "\xaa")(re.union (re.range "\xb5" "\xb5")(re.union (re.range "\xba" "\xba")(re.union (re.range "\xc0" "\xd6")(re.union (re.range "\xd8" "\xf6") (re.range "\xf8" "\xff")))))))))))(re.++ (re.* (re.++ (re.union (re.range "+" "+") (re.range "-" ".")) (re.+ (re.union (re.range "0" "9")(re.union (re.range "A" "Z")(re.union (re.range "_" "_")(re.union (re.range "a" "z")(re.union (re.range "\xaa" "\xaa")(re.union (re.range "\xb5" "\xb5")(re.union (re.range "\xba" "\xba")(re.union (re.range "\xc0" "\xd6")(re.union (re.range "\xd8" "\xf6") (re.range "\xf8" "\xff")))))))))))))(re.++ (re.range "@" "@")(re.++ (re.+ (re.union (re.range "0" "9")(re.union (re.range "A" "Z")(re.union (re.range "_" "_")(re.union (re.range "a" "z")(re.union (re.range "\xaa" "\xaa")(re.union (re.range "\xb5" "\xb5")(re.union (re.range "\xba" "\xba")(re.union (re.range "\xc0" "\xd6")(re.union (re.range "\xd8" "\xf6") (re.range "\xf8" "\xff")))))))))))(re.++ (re.* (re.++ (re.range "-" ".") (re.+ (re.union (re.range "0" "9")(re.union (re.range "A" "Z")(re.union (re.range "_" "_")(re.union (re.range "a" "z")(re.union (re.range "\xaa" "\xaa")(re.union (re.range "\xb5" "\xb5")(re.union (re.range "\xba" "\xba")(re.union (re.range "\xc0" "\xd6")(re.union (re.range "\xd8" "\xf6") (re.range "\xf8" "\xff")))))))))))))(re.++ (re.range "." ".")(re.++ (re.+ (re.union (re.range "0" "9")(re.union (re.range "A" "Z")(re.union (re.range "_" "_")(re.union (re.range "a" "z")(re.union (re.range "\xaa" "\xaa")(re.union (re.range "\xb5" "\xb5")(re.union (re.range "\xba" "\xba")(re.union (re.range "\xc0" "\xd6")(re.union (re.range "\xd8" "\xf6") (re.range "\xf8" "\xff")))))))))))(re.++ (re.* (re.++ (re.range "-" ".") (re.+ (re.union (re.range "0" "9")(re.union (re.range "A" "Z")(re.union (re.range "_" "_")(re.union (re.range "a" "z")(re.union (re.range "\xaa" "\xaa")(re.union (re.range "\xb5" "\xb5")(re.union (re.range "\xba" "\xba")(re.union (re.range "\xc0" "\xd6")(re.union (re.range "\xd8" "\xf6") (re.range "\xf8" "\xff"))))))))))))) (re.* (re.++ (re.union (re.range "," ",") (re.range ";" ";"))(re.++ (re.* (re.union (re.range "\x09" "\x0d")(re.union (re.range " " " ")(re.union (re.range "\x85" "\x85") (re.range "\xa0" "\xa0")))))(re.++ (re.+ (re.union (re.range "0" "9")(re.union (re.range "A" "Z")(re.union (re.range "_" "_")(re.union (re.range "a" "z")(re.union (re.range "\xaa" "\xaa")(re.union (re.range "\xb5" "\xb5")(re.union (re.range "\xba" "\xba")(re.union (re.range "\xc0" "\xd6")(re.union (re.range "\xd8" "\xf6") (re.range "\xf8" "\xff")))))))))))(re.++ (re.* (re.++ (re.union (re.range "+" "+") (re.range "-" ".")) (re.+ (re.union (re.range "0" "9")(re.union (re.range "A" "Z")(re.union (re.range "_" "_")(re.union (re.range "a" "z")(re.union (re.range "\xaa" "\xaa")(re.union (re.range "\xb5" "\xb5")(re.union (re.range "\xba" "\xba")(re.union (re.range "\xc0" "\xd6")(re.union (re.range "\xd8" "\xf6") (re.range "\xf8" "\xff")))))))))))))(re.++ (re.range "@" "@")(re.++ (re.+ (re.union (re.range "0" "9")(re.union (re.range "A" "Z")(re.union (re.range "_" "_")(re.union (re.range "a" "z")(re.union (re.range "\xaa" "\xaa")(re.union (re.range "\xb5" "\xb5")(re.union (re.range "\xba" "\xba")(re.union (re.range "\xc0" "\xd6")(re.union (re.range "\xd8" "\xf6") (re.range "\xf8" "\xff")))))))))))(re.++ (re.* (re.++ (re.range "-" ".") (re.+ (re.union (re.range "0" "9")(re.union (re.range "A" "Z")(re.union (re.range "_" "_")(re.union (re.range "a" "z")(re.union (re.range "\xaa" "\xaa")(re.union (re.range "\xb5" "\xb5")(re.union (re.range "\xba" "\xba")(re.union (re.range "\xc0" "\xd6")(re.union (re.range "\xd8" "\xf6") (re.range "\xf8" "\xff")))))))))))))(re.++ (re.range "." ".")(re.++ (re.+ (re.union (re.range "0" "9")(re.union (re.range "A" "Z")(re.union (re.range "_" "_")(re.union (re.range "a" "z")(re.union (re.range "\xaa" "\xaa")(re.union (re.range "\xb5" "\xb5")(re.union (re.range "\xba" "\xba")(re.union (re.range "\xc0" "\xd6")(re.union (re.range "\xd8" "\xf6") (re.range "\xf8" "\xff"))))))))))) (re.* (re.++ (re.range "-" ".") (re.+ (re.union (re.range "0" "9")(re.union (re.range "A" "Z")(re.union (re.range "_" "_")(re.union (re.range "a" "z")(re.union (re.range "\xaa" "\xaa")(re.union (re.range "\xb5" "\xb5")(re.union (re.range "\xba" "\xba")(re.union (re.range "\xc0" "\xd6")(re.union (re.range "\xd8" "\xf6") (re.range "\xf8" "\xff")))))))))))))))))))))))))))))))))

;check that the regex contains some x
(assert (str.in_re x regexA))
;check also the concrete witnesses
(assert (str.in_re Witness1 regexA))
(assert (str.in_re Witness2 regexA))
(check-sat)
